minimize:  20*y1  + 8*z1  + t1     /*12.5*/
	 + 20*y2  + 8*z2  + t2 
	 + 20*y3  + 8*z3  + t3 
	 + 20*y4  + 8*z4  + t4 
	 + 20*y5  + 8*z5  + t5 
	 + 20*y6  + 8*z6  + t6 
	 + 20*y7  + 8*z7  + t7 
	 + 20*y8  + 8*z8  + t8 
	 + 20*y9  + 8*z9  + t9 
	 + 20*y10 + 8*z10 + t10
	 + 20*y11 + 8*z11 + t11
	 + 20*y12 + 8*z12 + t12;

/* sub1ect to */
/*variables:	  j  = month
		  dj = demand
		  xj = normal production
		  yj = overtime production
		  zj = inventory
*/


/*12.8*/

x1 - x0 <= 800; x2 - x1 <= 800; x3 - x2 <= 800; x4 - x3 <= 800; x5 - x4 <= 800; x6 - x5 <= 800; x7 - x6 <= 800; x8 - x7 <= 800; x9 - x8 <= 800; x10 - x9 <= 800; x11 - x10 <= 800; x12 - x11 <= 800; 
x0 - x1 <= 800; x1 - x2 <= 800; x2 - x3 <= 800; x3 - x4 <= 800; x4 - x5 <= 800; x5 - x6 <= 800; x6 - x7 <= 800; x7 - x8 <= 800; x8 - x9 <= 800; x9 - x10 <= 800; x10 - x11 <= 800; x11 - x12 <= 800;

/*12.2*/

y1 <= 0 * x1; y2 <= 0 * x2; y3 <= 0 * x3; y4 <= 0 * x4; y5 <= 0 * x5; y6 <= 0 * x6; y7 <= 0 * x7; y8 <= 0 * x8; y9 <= 0 * x9; y10 <= 0 * x10; y11 <= 0 * x11; y12 <= 0 * x12;
 

/* 12.3*/

z0  + x1  + y1   = d1  + z1;	      	 
z1  + x2  + y2   = d2  + z2;	      	 
z2  + x3  + y3   = d3  + z3;	      	 
z3  + x4  + y4   = d4  + z4;	      	 
z4  + x5  + y5   = d5  + z5;	      	 
z5  + x6  + y6   = d6  + z6;	      	 
z6  + x7  + y7   = d7  + z7;	      	 
z7  + x8  + y8   = d8  + z8;	      	 
z8  + x9  + y9   = d9  + z9;	      	 
z9  + x10 + y10  = d10 + z10;	      	 
z10 + x11 + y11  = d11 + z11;	      	 
z11 + x12 + y12  = d12 + z12;	      	 

/* 12.10 */

t1 >= 15*x1 - 15*x0; t2 >= 15*x2 - 15*x1; t3 >= 15*x3 - 15*x2; t4 >= 15*x4 - 15*x3; t5 >= 15*x5 - 15*x4; t6 >= 15*x6 - 15*x5; t7 >= 15*x7 - 15*x6; t8 >= 15*x8 - 15*x7; t9 >= 15*x9 - 15*x8; t10 >= 15*x10 - 15*x9; t11 >= 15*x11 - 15*x10; t12 >= 15*x12 - 15*x11;
t1 >= 21*x0 - 21*x1; t2 >= 21*x1 - 21*x2; t3 >= 21*x2 - 21*x3; t4 >= 21*x3 - 21*x4; t5 >= 21*x4 - 21*x5; t6 >= 21*x5 - 21*x6; t7 >= 21*x6 - 21*x7; t8 >= 21*x7 - 21*x8; t9 >= 21*x8 - 21*x9; t10 >= 21*x9 - 21*x10; t11 >= 21*x10 - 21*x11; t12 >= 21*x11 - 21*x12;

/* 12.6 */

x0 = 5800;			 
z0 = 0;
z12 = 0;

/* 12.7 */

x1 >=0;	x2 >=0;	x3 >=0; x4 >=0; x5 >=0; x6 >=0; x7 >=0; x8 >=0; x9 >=0; x10 >=0; x11 >=0; x12 >=0;		
y1 >=0; y2 >=0; y3 >=0; y4 >=0; y5 >=0; y6 >=0; y7 >=0; y8 >=0; y9 >=0; y10 >=0; y11 >=0; y12 >=0;
z1 >=0; z2 >=0; z3 >=0; z4 >=0; z5 >=0; z6 >=0; z7 >=0; z8 >=0; z9 >=0; z10 >=0; z11 >=0; z12 >=0;
t1 >=0; t2 >=0; t3 >=0; t4 >=0; t5 >=0; t6 >=0; t7 >=0; t8 >=0; t9 >=0; t10 >=0; t11 >=0; t12 >=0;

/* demand schedule */ 

d1  = 5300;
d2  = 5100;
d3  = 4400;
d4  = 2800;
d5  = 4100;
d6  = 4800;
d7  = 6000;
d8  = 7100;
d9  = 7300;
d10 = 7800;
d11 = 7600;
d12 = 6400;

